Route #1: 4 27 52 8 46 34
Route #2: 45 29 15 20 60 36 47 48
Route #3: 21 61 28 22 62 33
Route #4: 63 16 3 44 32 9
Route #5: 39 31 55 25 50 18 24 49
Route #6: 23 56 41 64 42 43 1
Route #7: 2 30 5 37 57 13 54
Route #8: 7 53 14 59 19 35
Route #9: 11 38 10 58 12
Route #10: 6 51 17 40 26
Cost 845